************************************************************************
file with basedata            : mm10_.bas
initial value random generator: 1185041993
************************************************************************
projects                      :  1
jobs (incl. supersource/sink ):  12
horizon                       :  81
RESOURCES
  - renewable                 :  2   R
  - nonrenewable              :  2   N
  - doubly constrained        :  0   D
************************************************************************
PROJECT INFORMATION:
pronr.  #jobs rel.date duedate tardcost  MPM-Time
    1     10      0       21        9       21
************************************************************************
PRECEDENCE RELATIONS:
jobnr.    #modes  #successors   successors
   0        1          3           1   2   3
   1        3          2           6  10
   2        3          1           4
   3        3          3           8   9  10
   4        3          1           5
   5        3          2           6  10
   6        3          2           7   8
   7        3          1           9
   8        3          1          11
   9        3          1          11
  10        3          1          11
  11        1          0        
************************************************************************
REQUESTS/DURATIONS:
jobnr. mode duration  R 1  R 2  R 3  R 4  E(W 1)
------------------------------------------------------------------------
  0      1     0       0    0    0    0     0
  1      1     1       0    6    8    0    14
  2      1     8       0    7    0    6    104
  3      1     8       0    4    0    6    80
  4      1     3       0    9    0    2    33
  5      1     1       6    0    2    0     8
  6      1     4       6    0    0    6    48
  7      1     1       0    5    2    0     7
  8      1     4       0    4    8    0    48
  9      1     4       8    0    7    0    60
 10      1     2       0    7    7    0    28
 11      1     0       0    0    0    0     0
************************************************************************
RESOURCEAVAILABILITIES:
  R 1
   81
************************************************************************
RESOURCE LIMITS:
jobnr.  l(R 1)  u(R 1)
------------------------------------------------------------------------
  0        0       0
  1        7      14
  2        7      13
  3        5      10
  4        6      11
  5        4       8
  6        6      12
  7        4       7
  8        6      12
  9        8      15
 10        8      14
 11        0       0
************************************************************************
SCENARIOS:
------------------------------------------------------------------------
RESOURCE k = 1
s = 1: (0, 15, 108, 78, 25, 15, 59, 12, 36, 58, 25, 0)
s = 2: (0, 19, 103, 61, 37, 7, 48, 7, 42, 72, 23, 0)
s = 3: (0, 15, 73, 82, 27, 7, 28, 9, 34, 46, 27, 0)
s = 4: (0, 19, 133, 68, 33, 8, 61, 9, 42, 76, 35, 0)
s = 5: (0, 20, 81, 47, 22, 9, 33, 7, 78, 62, 39, 0)
s = 6: (0, 18, 95, 92, 40, 11, 27, 7, 53, 73, 42, 0)
s = 7: (0, 22, 85, 57, 27, 9, 53, 7, 68, 94, 30, 0)
s = 8: (0, 10, 68, 86, 29, 8, 39, 6, 45, 99, 29, 0)
s = 9: (0, 14, 140, 69, 32, 10, 41, 8, 74, 55, 22, 0)
s = 10: (0, 18, 114, 98, 39, 10, 48, 10, 38, 61, 34, 0)
s = 11: (0, 13, 118, 76, 25, 8, 73, 10, 38, 63, 22, 0)
s = 12: (0, 10, 89, 100, 61, 7, 60, 8, 50, 90, 19, 0)
s = 13: (0, 12, 71, 100, 42, 8, 48, 11, 45, 41, 23, 0)
s = 14: (0, 11, 65, 76, 30, 6, 52, 9, 48, 58, 25, 0)
s = 15: (0, 10, 117, 75, 19, 5, 56, 8, 37, 67, 32, 0)
s = 16: (0, 20, 161, 120, 40, 6, 33, 5, 43, 47, 41, 0)
s = 17: (0, 10, 99, 56, 32, 13, 30, 4, 63, 42, 23, 0)
s = 18: (0, 23, 118, 70, 32, 11, 40, 8, 50, 74, 26, 0)
s = 19: (0, 9, 130, 68, 39, 14, 44, 9, 26, 82, 29, 0)
s = 20: (0, 8, 143, 60, 34, 5, 71, 6, 41, 45, 29, 0)
s = 21: (0, 14, 116, 109, 25, 8, 48, 10, 44, 65, 41, 0)
s = 22: (0, 24, 135, 79, 49, 10, 32, 5, 58, 42, 47, 0)
s = 23: (0, 15, 57, 114, 41, 8, 55, 5, 36, 46, 18, 0)
s = 24: (0, 15, 78, 87, 41, 9, 36, 7, 40, 98, 19, 0)
s = 25: (0, 20, 165, 54, 31, 7, 32, 4, 45, 44, 35, 0)
s = 26: (0, 12, 131, 108, 36, 6, 34, 6, 51, 44, 37, 0)
s = 27: (0, 15, 89, 75, 54, 7, 55, 7, 37, 98, 23, 0)
s = 28: (0, 22, 101, 90, 32, 9, 34, 8, 64, 41, 28, 0)
s = 29: (0, 11, 63, 89, 40, 8, 35, 6, 67, 50, 26, 0)
s = 30: (0, 10, 75, 63, 36, 7, 33, 8, 55, 43, 31, 0)
s = 31: (0, 14, 80, 73, 41, 14, 46, 5, 74, 54, 38, 0)
s = 32: (0, 15, 80, 99, 39, 6, 60, 10, 66, 62, 30, 0)
s = 33: (0, 14, 142, 67, 27, 8, 48, 9, 80, 60, 38, 0)
s = 34: (0, 10, 141, 73, 54, 7, 57, 6, 61, 76, 37, 0)
s = 35: (0, 18, 65, 90, 37, 8, 50, 7, 43, 75, 24, 0)
s = 36: (0, 13, 105, 96, 50, 9, 32, 8, 36, 75, 22, 0)
s = 37: (0, 19, 63, 59, 35, 12, 45, 9, 28, 33, 35, 0)
s = 38: (0, 20, 114, 83, 35, 12, 44, 9, 43, 61, 20, 0)
s = 39: (0, 17, 73, 93, 26, 9, 34, 11, 48, 64, 37, 0)
s = 40: (0, 12, 118, 97, 29, 7, 37, 10, 56, 53, 48, 0)
s = 41: (0, 10, 108, 61, 42, 5, 61, 8, 26, 96, 17, 0)
s = 42: (0, 20, 103, 50, 21, 11, 53, 6, 38, 53, 25, 0)
s = 43: (0, 12, 66, 104, 34, 11, 31, 7, 63, 49, 28, 0)
s = 44: (0, 17, 79, 62, 59, 6, 38, 5, 30, 43, 22, 0)
s = 45: (0, 10, 150, 137, 34, 11, 28, 7, 63, 50, 36, 0)
s = 46: (0, 16, 110, 46, 22, 8, 51, 6, 40, 49, 17, 0)
s = 47: (0, 10, 118, 64, 54, 9, 92, 5, 65, 63, 19, 0)
s = 48: (0, 9, 154, 53, 36, 9, 32, 9, 75, 48, 16, 0)
s = 49: (0, 9, 125, 95, 49, 11, 51, 6, 53, 40, 29, 0)
s = 50: (0, 14, 152, 42, 38, 7, 80, 8, 46, 44, 30, 0)
s = 51: (0, 18, 68, 121, 45, 8, 41, 7, 58, 66, 19, 0)
s = 52: (0, 14, 82, 55, 39, 11, 36, 6, 63, 70, 48, 0)
s = 53: (0, 15, 86, 79, 40, 10, 73, 5, 31, 73, 39, 0)
s = 54: (0, 15, 80, 143, 53, 10, 41, 6, 41, 67, 30, 0)
s = 55: (0, 17, 66, 85, 25, 8, 54, 7, 71, 33, 31, 0)
s = 56: (0, 18, 162, 106, 20, 7, 62, 9, 32, 58, 24, 0)
s = 57: (0, 12, 70, 90, 28, 5, 52, 5, 54, 80, 30, 0)
s = 58: (0, 12, 82, 76, 41, 11, 33, 6, 71, 90, 33, 0)
s = 59: (0, 12, 116, 51, 26, 10, 41, 4, 37, 44, 24, 0)
s = 60: (0, 19, 117, 123, 39, 8, 69, 8, 47, 51, 42, 0)
s = 61: (0, 10, 83, 80, 31, 11, 40, 8, 56, 48, 34, 0)
s = 62: (0, 10, 100, 46, 26, 11, 72, 8, 46, 52, 31, 0)
s = 63: (0, 15, 90, 86, 37, 8, 64, 9, 47, 69, 45, 0)
s = 64: (0, 16, 59, 74, 23, 6, 51, 7, 45, 40, 37, 0)
s = 65: (0, 12, 94, 85, 36, 7, 37, 6, 64, 86, 22, 0)
s = 66: (0, 14, 99, 117, 36, 6, 44, 7, 41, 75, 24, 0)
s = 67: (0, 14, 144, 128, 34, 10, 46, 8, 48, 44, 21, 0)
s = 68: (0, 10, 87, 92, 20, 9, 46, 6, 29, 45, 24, 0)
s = 69: (0, 15, 118, 130, 25, 11, 34, 9, 55, 38, 29, 0)
s = 70: (0, 10, 84, 119, 31, 11, 37, 5, 63, 85, 41, 0)
s = 71: (0, 19, 69, 103, 26, 8, 71, 10, 44, 66, 43, 0)
s = 72: (0, 26, 158, 67, 34, 7, 52, 9, 69, 68, 26, 0)
s = 73: (0, 17, 117, 80, 29, 5, 74, 6, 36, 58, 27, 0)
s = 74: (0, 11, 167, 102, 22, 12, 38, 8, 45, 56, 29, 0)
s = 75: (0, 11, 81, 110, 44, 8, 40, 12, 41, 55, 15, 0)
s = 76: (0, 17, 130, 63, 38, 10, 49, 7, 27, 63, 22, 0)
s = 77: (0, 25, 102, 96, 51, 8, 53, 10, 39, 69, 28, 0)
s = 78: (0, 14, 135, 60, 32, 10, 57, 4, 39, 48, 33, 0)
s = 79: (0, 18, 129, 93, 39, 8, 38, 7, 48, 73, 36, 0)
s = 80: (0, 16, 108, 117, 33, 9, 32, 5, 71, 32, 48, 0)
s = 81: (0, 14, 59, 102, 38, 7, 36, 7, 54, 60, 21, 0)
s = 82: (0, 12, 107, 90, 28, 10, 34, 6, 28, 88, 37, 0)
s = 83: (0, 13, 91, 71, 21, 7, 64, 6, 54, 61, 24, 0)
s = 84: (0, 21, 83, 75, 34, 6, 35, 11, 57, 76, 31, 0)
s = 85: (0, 13, 111, 69, 36, 6, 59, 6, 56, 53, 29, 0)
s = 86: (0, 18, 92, 84, 20, 6, 56, 7, 29, 79, 18, 0)
s = 87: (0, 14, 126, 60, 33, 8, 41, 9, 53, 91, 23, 0)
s = 88: (0, 13, 88, 57, 32, 8, 54, 5, 58, 58, 33, 0)
s = 89: (0, 13, 91, 94, 31, 7, 47, 7, 70, 61, 30, 0)
s = 90: (0, 18, 111, 68, 39, 9, 64, 5, 27, 84, 25, 0)
s = 91: (0, 13, 69, 91, 34, 5, 42, 10, 42, 82, 30, 0)
s = 92: (0, 10, 111, 97, 34, 7, 35, 5, 52, 58, 22, 0)
s = 93: (0, 20, 93, 78, 59, 5, 60, 8, 45, 50, 22, 0)
s = 94: (0, 21, 91, 67, 49, 10, 54, 6, 90, 57, 31, 0)
s = 95: (0, 11, 87, 51, 48, 9, 43, 5, 31, 41, 33, 0)
s = 96: (0, 15, 135, 75, 41, 7, 47, 6, 56, 42, 28, 0)
s = 97: (0, 13, 120, 89, 50, 9, 64, 7, 41, 52, 28, 0)
s = 98: (0, 15, 66, 95, 32, 6, 37, 8, 37, 89, 34, 0)
s = 99: (0, 14, 84, 76, 22, 7, 67, 9, 38, 59, 49, 0)
s = 100: (0, 11, 89, 45, 64, 9, 72, 8, 44, 63, 29, 0)
s = 101: (0, 15, 112, 65, 43, 7, 60, 9, 55, 57, 28, 0)
s = 102: (0, 16, 77, 86, 61, 9, 58, 5, 56, 69, 33, 0)
s = 103: (0, 9, 78, 108, 31, 5, 43, 6, 49, 51, 34, 0)
s = 104: (0, 14, 176, 122, 31, 10, 57, 9, 37, 67, 32, 0)
s = 105: (0, 22, 85, 77, 24, 6, 45, 9, 39, 54, 41, 0)
s = 106: (0, 15, 125, 105, 35, 10, 44, 10, 49, 113, 21, 0)
s = 107: (0, 15, 95, 95, 23, 7, 76, 6, 37, 57, 19, 0)
s = 108: (0, 22, 124, 79, 26, 7, 44, 9, 34, 81, 18, 0)
s = 109: (0, 14, 118, 102, 34, 6, 42, 8, 78, 70, 32, 0)
s = 110: (0, 18, 126, 96, 24, 13, 47, 7, 26, 67, 20, 0)
s = 111: (0, 15, 141, 88, 35, 7, 53, 6, 29, 90, 25, 0)
s = 112: (0, 8, 110, 80, 44, 8, 31, 6, 88, 59, 18, 0)
s = 113: (0, 13, 113, 62, 26, 5, 38, 7, 50, 56, 21, 0)
s = 114: (0, 11, 83, 117, 19, 14, 42, 9, 36, 46, 26, 0)
s = 115: (0, 15, 75, 86, 46, 9, 38, 5, 36, 81, 51, 0)
s = 116: (0, 18, 109, 108, 31, 9, 42, 4, 71, 58, 22, 0)
s = 117: (0, 13, 86, 63, 33, 6, 54, 4, 57, 50, 33, 0)
s = 118: (0, 15, 123, 82, 41, 6, 70, 5, 33, 74, 21, 0)
s = 119: (0, 17, 151, 115, 37, 8, 38, 9, 41, 37, 30, 0)
s = 120: (0, 19, 76, 132, 36, 8, 39, 5, 43, 47, 31, 0)
s = 121: (0, 20, 59, 125, 42, 8, 66, 6, 87, 60, 30, 0)
s = 122: (0, 21, 113, 65, 26, 12, 31, 6, 47, 56, 36, 0)
s = 123: (0, 10, 119, 125, 35, 8, 88, 5, 41, 61, 22, 0)
s = 124: (0, 20, 128, 115, 25, 6, 69, 6, 40, 57, 34, 0)
s = 125: (0, 11, 153, 79, 24, 7, 41, 8, 60, 47, 33, 0)
s = 126: (0, 22, 101, 58, 46, 8, 40, 7, 41, 84, 31, 0)
s = 127: (0, 13, 75, 52, 50, 6, 54, 6, 32, 43, 27, 0)
s = 128: (0, 10, 130, 69, 33, 9, 47, 5, 40, 38, 19, 0)
s = 129: (0, 13, 168, 58, 24, 8, 39, 6, 40, 103, 32, 0)
s = 130: (0, 16, 73, 74, 30, 8, 34, 6, 54, 87, 21, 0)
s = 131: (0, 15, 62, 100, 40, 6, 35, 6, 36, 92, 22, 0)
s = 132: (0, 9, 146, 72, 36, 8, 57, 11, 48, 43, 29, 0)
s = 133: (0, 14, 127, 50, 32, 12, 77, 9, 34, 84, 19, 0)
s = 134: (0, 12, 80, 96, 39, 12, 50, 6, 57, 51, 20, 0)
s = 135: (0, 15, 109, 72, 30, 9, 75, 6, 45, 51, 24, 0)
s = 136: (0, 11, 81, 66, 29, 8, 35, 12, 60, 52, 23, 0)
s = 137: (0, 10, 83, 55, 31, 11, 54, 8, 69, 59, 21, 0)
s = 138: (0, 12, 138, 87, 34, 9, 62, 5, 49, 73, 22, 0)
s = 139: (0, 15, 78, 83, 31, 12, 33, 5, 57, 35, 20, 0)
s = 140: (0, 11, 101, 89, 23, 11, 53, 6, 28, 68, 47, 0)
s = 141: (0, 11, 89, 87, 46, 9, 53, 9, 67, 63, 25, 0)
s = 142: (0, 22, 86, 82, 36, 7, 58, 5, 52, 56, 20, 0)
s = 143: (0, 13, 78, 103, 39, 6, 54, 8, 54, 66, 32, 0)
s = 144: (0, 12, 86, 84, 53, 6, 41, 8, 28, 50, 31, 0)
s = 145: (0, 12, 117, 107, 24, 10, 40, 7, 81, 65, 27, 0)
s = 146: (0, 10, 112, 75, 26, 11, 52, 7, 61, 45, 21, 0)
s = 147: (0, 18, 111, 48, 46, 13, 63, 8, 26, 57, 20, 0)
s = 148: (0, 18, 80, 92, 39, 8, 45, 6, 80, 36, 21, 0)
s = 149: (0, 12, 104, 81, 21, 10, 34, 11, 35, 53, 45, 0)
s = 150: (0, 9, 78, 87, 26, 5, 31, 10, 33, 56, 33, 0)
s = 151: (0, 10, 142, 76, 23, 8, 30, 5, 42, 48, 25, 0)
s = 152: (0, 19, 74, 59, 44, 10, 52, 7, 59, 41, 26, 0)
s = 153: (0, 11, 132, 46, 47, 10, 59, 11, 76, 55, 34, 0)
s = 154: (0, 15, 70, 108, 41, 14, 34, 8, 51, 38, 23, 0)
s = 155: (0, 13, 176, 54, 36, 6, 43, 5, 39, 55, 22, 0)
s = 156: (0, 17, 90, 68, 45, 7, 41, 6, 62, 44, 21, 0)
s = 157: (0, 11, 128, 84, 37, 6, 38, 6, 35, 96, 24, 0)
s = 158: (0, 13, 63, 106, 45, 8, 53, 10, 71, 44, 31, 0)
s = 159: (0, 16, 68, 97, 39, 5, 47, 8, 39, 41, 41, 0)
s = 160: (0, 12, 94, 73, 30, 8, 39, 9, 42, 57, 28, 0)
s = 161: (0, 8, 83, 108, 32, 6, 49, 11, 44, 41, 37, 0)
s = 162: (0, 17, 99, 54, 34, 10, 38, 9, 49, 94, 28, 0)
s = 163: (0, 12, 101, 80, 44, 7, 51, 8, 33, 69, 19, 0)
s = 164: (0, 13, 88, 133, 22, 12, 55, 6, 82, 74, 23, 0)
s = 165: (0, 13, 104, 81, 32, 10, 59, 8, 39, 106, 21, 0)
s = 166: (0, 14, 95, 111, 26, 6, 57, 8, 84, 55, 19, 0)
s = 167: (0, 13, 108, 82, 39, 8, 29, 6, 48, 45, 16, 0)
s = 168: (0, 10, 74, 48, 26, 8, 52, 10, 62, 87, 36, 0)
s = 169: (0, 10, 92, 62, 27, 11, 66, 6, 30, 72, 48, 0)
s = 170: (0, 10, 71, 58, 24, 7, 44, 7, 56, 56, 28, 0)
s = 171: (0, 18, 105, 123, 36, 8, 33, 10, 63, 49, 32, 0)
s = 172: (0, 18, 99, 71, 34, 7, 48, 9, 48, 73, 19, 0)
s = 173: (0, 23, 110, 67, 33, 6, 45, 6, 39, 85, 31, 0)
s = 174: (0, 10, 66, 51, 34, 9, 36, 8, 42, 74, 20, 0)
s = 175: (0, 22, 106, 133, 18, 11, 50, 6, 44, 35, 27, 0)
s = 176: (0, 12, 115, 143, 26, 9, 53, 10, 39, 41, 38, 0)
s = 177: (0, 12, 131, 82, 40, 6, 74, 10, 47, 33, 35, 0)
s = 178: (0, 26, 106, 75, 43, 7, 65, 9, 53, 54, 25, 0)
s = 179: (0, 20, 94, 68, 29, 7, 49, 6, 40, 68, 27, 0)
s = 180: (0, 15, 109, 78, 40, 9, 46, 5, 53, 33, 24, 0)
s = 181: (0, 13, 81, 97, 33, 13, 60, 10, 54, 55, 30, 0)
s = 182: (0, 10, 124, 123, 23, 9, 70, 10, 72, 95, 29, 0)
s = 183: (0, 14, 63, 51, 19, 14, 50, 9, 31, 69, 17, 0)
s = 184: (0, 11, 183, 86, 24, 9, 61, 12, 37, 40, 33, 0)
s = 185: (0, 10, 72, 85, 48, 9, 49, 6, 62, 52, 37, 0)
s = 186: (0, 11, 132, 80, 50, 15, 34, 11, 45, 58, 58, 0)
s = 187: (0, 10, 103, 82, 52, 11, 41, 6, 49, 66, 21, 0)
s = 188: (0, 11, 96, 133, 32, 8, 40, 6, 57, 59, 37, 0)
s = 189: (0, 13, 78, 76, 23, 10, 30, 7, 41, 69, 26, 0)
s = 190: (0, 11, 114, 57, 35, 6, 48, 8, 51, 86, 19, 0)
s = 191: (0, 15, 71, 74, 23, 14, 32, 5, 39, 62, 25, 0)
s = 192: (0, 14, 102, 82, 38, 9, 57, 8, 45, 54, 22, 0)
s = 193: (0, 8, 72, 98, 47, 6, 34, 6, 54, 55, 17, 0)
s = 194: (0, 12, 103, 104, 33, 9, 44, 5, 42, 47, 30, 0)
s = 195: (0, 17, 71, 54, 28, 8, 53, 5, 47, 43, 39, 0)
s = 196: (0, 10, 74, 66, 37, 12, 47, 8, 70, 104, 38, 0)
s = 197: (0, 17, 98, 70, 28, 8, 43, 10, 61, 42, 22, 0)
s = 198: (0, 20, 129, 95, 29, 7, 51, 8, 50, 74, 28, 0)
s = 199: (0, 17, 92, 82, 46, 7, 31, 7, 63, 70, 19, 0)
s = 200: (0, 10, 134, 56, 51, 10, 41, 8, 53, 70, 21, 0)
************************************************************************
ES/LS-VALUES:
jobnr.   ES(i)    LS(i)
------------------------------------------------------------------------
  0        0        0
  1        0       61
  2        0       40
  3        0       58
  4       14       55
  5       19       61
  6       20       63
  7       27       71
  8       27       73
  9       28       73
 10       20       76
 11       35       81
************************************************************************
BIG-M-VALUES:
M1 = 29, M2 = 183
************************************************************************
